0
10
34
43
30
0
43
11
28
0
56
0
21
30
81
21
21
0
73
105
13
33
0
31
9
118
12
145
0
47
14
0
29
94
14
29
87
0
12
15
30
30
21
0
0
11
29
56
0
20
15
76
20
21
25
17
9
0
29
30
15
0
34
8
42
0
28
18
21
0
8
16
0
68
14
18
20
13
27
0
18
19
56
7
33
52
34
0
0
12
19
21
11
24
43
10
0
15
21
0
